
******************************************************************************
This program contains Ipopt, a library for large-scale nonlinear optimization.
 Ipopt is released as open source code under the Eclipse Public License (EPL).
         For more information visit http://projects.coin-or.org/Ipopt

This version of Ipopt was compiled from source code available at
    https://github.com/IDAES/Ipopt as part of the Institute for the Design of
    Advanced Energy Systems Process Systems Engineering Framework (IDAES PSE
    Framework) Copyright (c) 2018-2019. See https://github.com/IDAES/idaes-pse.

This version of Ipopt was compiled using HSL, a collection of Fortran codes
    for large-scale scientific computation.  All technical papers, sales and
    publicity material resulting from use of the HSL codes within IPOPT must
    contain the following acknowledgement:
        HSL, a collection of Fortran codes for large-scale scientific
        computation. See http://www.hsl.rl.ac.uk.
******************************************************************************

This is Ipopt version 3.13.2, running with linear solver ma27.

Number of nonzeros in equality constraint Jacobian...:      808
Number of nonzeros in inequality constraint Jacobian.:        0
Number of nonzeros in Lagrangian Hessian.............:      702

Total number of variables............................:      351
                     variables with only lower bounds:      108
                variables with lower and upper bounds:      189
                     variables with only upper bounds:        0
Total number of equality constraints.................:      350
Total number of inequality constraints...............:        0
        inequality constraints with only lower bounds:        0
   inequality constraints with lower and upper bounds:        0
        inequality constraints with only upper bounds:        0

iter    objective    inf_pr   inf_du lg(mu)  ||d||  lg(rg) alpha_du alpha_pr  ls
   0  0.0000000e+00 7.39e-01 1.42e-14  -1.0 0.00e+00    -  0.00e+00 0.00e+00   0
   1  1.3179465e+00 8.00e-01 1.74e+05  -1.0 1.28e+05    -  5.08e-01 5.86e-01h  1
   2  1.3883386e+00 7.66e-01 1.66e+05  -1.0 4.78e+04    -  8.25e-01 3.82e-02h  1
   3  1.4476401e+00 7.43e-01 1.61e+05  -1.0 2.25e+05    -  7.77e-01 3.03e-02h  1
   4  1.6535215e+01 5.17e-01 1.63e+04  -1.0 2.23e+05    -  7.81e-01 9.90e-01h  1
   5  2.0585565e+01 6.99e-02 1.28e+03  -1.0 3.08e+04    -  5.19e-01 9.90e-01h  1
   6  2.0687527e+01 2.20e-03 8.26e+03  -1.0 7.34e+02    -  9.58e-01 9.90e-01h  1
   7  2.0696218e+01 2.55e-05 6.78e+01  -1.0 5.91e+01    -  9.90e-01 9.90e-01h  1
   8  2.0687906e+01 1.19e-05 3.35e+07  -2.5 1.03e+02    -  9.97e-01 5.40e-01h  1
   9  2.0688087e+01 1.11e-05 1.80e+08  -2.5 1.93e+01    -  9.98e-01 6.23e-02f  5
iter    objective    inf_pr   inf_du lg(mu)  ||d||  lg(rg) alpha_du alpha_pr  ls
  10  2.0690771e+01 5.42e-08 9.90e+05  -2.5 1.80e+01    -  1.00e+00 9.97e-01h  1
  11  2.0690778e+01 1.54e-10 1.70e+08  -2.5 5.01e-02    -  1.00e+00 9.97e-01h  1
In iteration 11, 27 Slacks too small, adjusting variable bounds
  12  2.0690778e+01 1.96e-11 6.00e+10  -2.5 1.43e-04    -  1.00e+00 9.97e-01h  1
  13  2.0690778e+01 2.12e-11 2.12e+13  -2.5 2.67e-06    -  1.00e+00 2.44e-04h 13
  14  2.0690778e+01 3.89e-11 2.22e-03  -2.5 2.88e-06    -  1.00e+00 1.00e+00s 22
  15  2.0687885e+01 6.05e-08 1.80e-02  -9.0 1.98e+01    -  9.78e-01 9.78e-01s 22
  16  2.0687885e+01 5.79e-11 2.23e-07  -9.0 1.47e-03    -  1.00e+00 1.00e+00s 22
  17  2.0687885e+01 8.17e-11 1.43e-11  -9.0 7.73e-06    -  1.00e+00 1.00e+00s 22

Number of Iterations....: 17

                                   (scaled)                 (unscaled)
Objective...............:   2.0687885144506932e+01    2.0687885144506932e+01
Dual infeasibility......:   1.4264499679224190e-11    1.4264499679224190e-11
Constraint violation....:   8.1658235728809814e-11    8.1658235728809814e-11
Complementarity.........:   9.0909090909091861e-10    9.0909090909091861e-10
Overall NLP error.......:   8.4209179721599793e-11    9.0909090909091861e-10


Number of objective function evaluations             = 59
Number of objective gradient evaluations             = 18
Number of equality constraint evaluations            = 59
Number of inequality constraint evaluations          = 0
Number of equality constraint Jacobian evaluations   = 18
Number of inequality constraint Jacobian evaluations = 0
Number of Lagrangian Hessian evaluations             = 17
Total CPU secs in IPOPT (w/o function evaluations)   =      0.040
Total CPU secs in NLP function evaluations           =      0.648

EXIT: Optimal Solution Found.
